127 132460
1 105 114 3 91 58 64 100 10 120 7 13 115 50 5 121 56 52 124 47 53 49 118 46 94 112 111 107 127 98 97 123 95 93 48 55 66 113 65 99 92 89 125 104 59 60 116 62 61 90 9 11 23 22 17 72 67 71 110 85 86 88 87 109 96 70 68 73 74 8 19 4 108 6 24 106 15 20 21 18 77 76 75 69 119 63 102 101 83 82 126 81 84 117 78 80 79 31 12 14 41 30 27 26 29 32 33 28 122 25 38 42 39 34 43 40 36 37 35 44 103 45 54 57 51 2 16 
